NAME: PointSet_Angle_55_3
TYPE: TSP
COMMENT: Points chosen discrete uniformly at random out of ${0, \ldots, 500}^2$.
DIMENSION: 55
EDGE_WEIGHT_TYPE: EUC_2D
NODE_COORD_SECTION
1 200 495
2 314 139
3 473 235
4 330 348
5 402 334
6 271 314
7 191 114
8 185 489
9 107 150
10 419 67
11 365 264
12 212 151
13 445 341
14 128 59
15 52 123
16 162 252
17 364 222
18 138 336
19 204 468
20 183 105
21 47 200
22 419 486
23 314 351
24 474 422
25 247 392
26 235 111
27 403 447
28 9 93
29 33 137
30 400 85
31 6 308
32 338 371
33 29 222
34 453 233
35 189 383
36 85 237
37 82 250
38 222 143
39 100 195
40 311 348
41 334 45
42 205 483
43 493 461
44 322 25
45 345 221
46 111 351
47 275 195
48 468 305
49 417 421
50 284 352
51 303 369
52 335 131
53 119 56
54 274 466
55 499 84
EOF
